80 8
10 74
50 18
46 85
66 88
52 81
10 90
39 19
21 82
80 54
4 11
55 39
20 88
29 72
68 87
37 79
63 35
8 15
54 100
67 40
78 6
37 10
45 17
12 53
37 84
28 9
70 6
22 21
17 100
50 89
30 64
67 40
58 44
78 67
48 67
40 78
32 2
12 99
5 67
78 77
4 53
6 54
58 21
1 42
2 97
39 4
34 1
28 72
67 69
9 69
36 82
47 12
58 71
74 27
19 69
60 74
53 41
17 4
68 64
58 95
39 68
22 87
46 71
8 88
39 11
47 32
36 71
70 65
22 35
81 94
80 98
28 24
50 87
80 37
70 9
65 37
76 61
70 81
46 87
52 10
30 44
755 848
765 923
527 605
521 601
473 552
534 618
618 692
551 637
